51887.0
67, 151, 159, 171, 400, 457, 550, 602, 774, 781, 857, 861, 1006, 1257, 1370, 1447, 2194, 2284, 2287, 2388, 2402, 2469, 2499, 2789, 2907, 2976, 2984, 3141, 3266, 3318, 3375, 3465, 3540, 3636, 3673, 3704, 3826, 3883, 3905, 3949, 4079, 4197, 4852, 4942, 4950, 5030, 5095, 5218, 5251, 5260, 5263, 5322, 5365, 5561, 5639, 5667, 5844, 6195, 6210, 6299, 6376, 6396, 6447, 6660, 6677, 6694, 6780, 6978, 7032, 7038, 7521, 7559, 7572, 7599, 7686, 7723, 8009, 8147, 8278, 8280, 8298, 8302, 8384, 8461, 8570, 8668, 8843, 8878, 9067, 9154, 9204, 9590, 9940